s td 12 29 40
b 1 1 2 3 4 6 7 8 11 12 13 14 15 16 17 18 19 20 21 22 24 25 27 29 30 31 33 35 36 40
b 2 1 3 4 6 7 8 11 12 13 14 15 16 17 18 19 20 21 22 24 25 27 29 30 31 32 33 35 36 40
b 3 1 3 4 6 7 8 11 12 13 14 15 16 17 18 19 20 21 22 24 27 29 30 31 32 33 34 35 36 40
b 4 1 3 4 6 7 8 11 12 13 14 15 16 17 19 21 22 24 27 29 30 31 32 33 34 35 36 38 40
b 5 1 3 4 5 6 7 8 11 12 13 15 16 17 21 22 27 29 30 31 32 33 34 35 36 38 40
b 6 1 3 5 6 7 11 12 16 17 21 22 27 29 30 31 32 33 35 39
b 7 1 3 4 6 11 12 13 14 15 16 17 18 19 20 21 22 24 27 29 30 31 32 33 35 37 40
b 8 3 4 6 12 13 14 15 16 17 18 19 21 23 27 29 30 31 32 35 37 40
b 9 1 2 3 4 6 7 8 9 11 15 18 19 20 21 22 24 27 30 31 35 40
b 10 4 6 8 10 11 12 13 14 15 21 25 27 30 31 36 40
b 11 1 2 3 6 7 8 11 12 13 14 16 17 18 19 20 21 22 25 27 28 30 31 33 35
b 12 3 6 7 8 12 16 19 25 26 28 30 31 33 35
1 2
1 9
1 10
1 11
2 3
2 7
3 4
4 5
5 6
7 8
11 12
